# Solution for model count
# Objective value = 10
z#1 1
z#2 0
z#3 0
z#4 0
z#5 1
z#6 1
z#7 1
z#8 0
z#9 0
z#10 0
z#11 1
z#12 0
z#13 0
z#14 1
z#15 0
z#16 0
z#17 1
z#18 0
z#19 1
z#20 1
z#21 0
z#22 1
z#23 0
z#24 0
x#24 0
x#23 0
x#22 1325
x#21 0
x#20 1304
x#19 1204
x#18 0
x#17 175
x#16 0
x#15 0
x#14 1065
x#13 0
x#12 0
x#11 968
x#10 0
x#9 0
x#8 0
x#7 168
x#6 3249
x#5 541
x#4 0
x#3 0
x#2 0
x#1 1
